<number of tasks>
50

<cycle time>
1000

<order strength>
0.197


<task times>
1 227
2 61
3 143
4 152
5 39
6 147
7 233
8 152
9 113
10 197
11 51
12 241
13 140
14 124
15 37
16 65
17 141
18 201
19 136
20 112
21 173
22 35
23 204
24 59
25 125
26 124
27 114
28 217
29 52
30 157
31 190
32 182
33 85
34 168
35 142
36 36
37 75
38 138
39 39
40 113
41 181
42 80
43 34
44 26
45 33
46 146
47 26
48 301
49 252
50 197

<precedence relations>
1,6
1,17
2,19
3,10
4,9
4,11
4,12
5,7
5,8
5,47
5,49
6,13
7,14
7,15
7,17
8,16
8,19
8,44
9,23
10,18
11,37
13,23
14,20
15,21
16,22
17,25
19,24
19,26
20,27
21,28
22,29
23,31
24,30
27,32
28,34
29,36
30,33
30,37
31,35
31,37
31,38
32,42
33,39
34,40
35,41
36,42
37,46
38,43
38,44
38,46
39,46
40,45
41,47
42,48
43,47
43,49
44,50

<end>
